(declare-sort sk 0)
(declare-sort fun1 0)
(declare-sort fun12 0)
(declare-sort fun13 0)
(declare-sort fun14 0)
(declare-sort fun15 0)
(declare-sort fun16 0)
(declare-sort sk2 0)
(declare-datatype list2 ((nil2) (cons2 (head2 Int) (tail2 list2))))
(declare-datatype list ((nil) (cons (head sk) (tail list))))
(declare-fun ordered (list2) Bool)
(declare-fun qsort (list2) list2)
(declare-fun filter (fun13 list) list)
(declare-fun filter2 (fun16 list2) list2)
(declare-fun ++ (list list) list)
(declare-fun ++2 (list2 list2) list2)
(declare-fun lam (Int) fun16)
(declare-fun lam2 (Int) fun16)
(declare-fun apply1 (fun1 sk) sk)
(declare-fun apply12 (fun12 sk) sk2)
(declare-fun apply13 (fun13 sk) Bool)
(declare-fun apply14 (fun14 sk2) sk)
(declare-fun apply15 (fun15 sk2) sk2)
(declare-fun apply16 (fun16 Int) Bool)
(assert (ordered nil2))
(assert (= (qsort nil2) nil2))
(assert (forall ((y Int)) (ordered (cons2 y nil2))))
(assert
  (forall ((y Int) (y2 Int) (xs list2))
    (= (ordered (cons2 y (cons2 y2 xs)))
      (and (<= y y2) (ordered (cons2 y2 xs))))))
(assert (forall ((p fun13)) (= (filter p nil) nil)))
(assert
  (forall ((p fun13) (y sk) (xs list))
    (=> (apply13 p y)
      (= (filter p (cons y xs)) (cons y (filter p xs))))))
(assert
  (forall ((p fun13) (y sk) (xs list))
    (=> (not (apply13 p y)) (= (filter p (cons y xs)) (filter p xs)))))
(assert (forall ((p fun16)) (= (filter2 p nil2) nil2)))
(assert
  (forall ((p fun16) (y Int) (xs list2))
    (=> (apply16 p y)
      (= (filter2 p (cons2 y xs)) (cons2 y (filter2 p xs))))))
(assert
  (forall ((p fun16) (y Int) (xs list2))
    (=> (not (apply16 p y))
      (= (filter2 p (cons2 y xs)) (filter2 p xs)))))
(assert (forall ((y list)) (= (++ nil y) y)))
(assert
  (forall ((y list) (z sk) (xs list))
    (= (++ (cons z xs) y) (cons z (++ xs y)))))
(assert (forall ((y list2)) (= (++2 nil2 y) y)))
(assert
  (forall ((y list2) (z Int) (xs list2))
    (= (++2 (cons2 z xs) y) (cons2 z (++2 xs y)))))
(assert
  (forall ((y Int) (xs list2))
    (= (qsort (cons2 y xs))
      (++2 (qsort (filter2 (lam y) xs))
        (++2 (cons2 y nil2) (qsort (filter2 (lam2 y) xs)))))))
(assert
  (forall ((y Int) (z Int)) (= (apply16 (lam y) z) (<= z y))))
(assert
  (forall ((y Int) (x2 Int)) (= (apply16 (lam2 y) x2) (> x2 y))))
